lattice_vector   5.0446090698   0.0000000000   0.0000000000
lattice_vector   2.5223042440   4.3687597746   0.0000000000
lattice_vector   2.5223042440   1.4562531462   4.1189062555
atom_frac        0.0000000000   0.0000000000   0.0000000000   C
atom_frac        0.0000000000   0.0000000000   0.5000000000   C
atom_frac        0.0000000000   0.5000000000   0.0000000000   C
atom_frac        0.0000000000   0.5000000000   0.5000000000   C
atom_frac        0.5000000000   0.0000000000   0.0000000000   C
atom_frac        0.5000000000   0.0000000000   0.5000000000   C
atom_frac        0.5000000000   0.5000000000   0.0000000000   C
atom_frac        0.5000000000   0.5000000000   0.5000000000   C
atom_frac        0.1250000000   0.1250000000   0.1250000000   C
atom_frac        0.1250000000   0.1250000000   0.6250000000   C
atom_frac        0.1250000000   0.6250000000   0.1250000000   C
atom_frac        0.1250000000   0.6250000000   0.6250000000   C
atom_frac        0.6250000000   0.1250000000   0.1250000000   C
atom_frac        0.6250000000   0.1250000000   0.6250000000   C
atom_frac        0.6250000000   0.6250000000   0.1250000000   C
atom_frac        0.6250000000   0.6250000000   0.6250000000   C
