#
# Mg1 O1
# reference: 
#
atom_frac     0.000000000     0.000000000     0.000000000 Mg
atom_frac     0.500000000     0.500000000     0.500000000 O
lattice_vector     0.000000000     2.106376658     2.106376658
lattice_vector     2.106376658     0.000000000     2.106376658
lattice_vector     2.106376658     2.106376658     0.000000000
