lattice_vector 20.0 0.0 0.0
lattice_vector  0.0 20.0 0.0
lattice_vector 0.0 0.0 20.0
atom	0.0000   0.0000   0.3707 H
atom	0.0000   0.0000   -0.3707 H


